Route #1: 66 59 61 15 22 5 4 50 11 45 3 37 30 16 40 10
Route #2: 18 62 12 44 36 51 14 64 17 20 60 47 65 26 49 13 38 58 57 46 32 39 8 52 23 35
Route #3: 28 6 34 9 43 25 63 7 31 27 48 29
Route #4: 19 24 42 2 53 55 56 54 21
Route #5: 33 41
Route #6: 1
Route #7: 
Route #8: 
Route #9: 
cost 2109.036431405007
